




































































































14 22 43 8 15 16 
19 65 57 66 24 62 
36 64 46 68 12 50 
18 37 1 52 31 
70 10 51 59 3 58 44 
34 20 4 13 7 55 
67 41 45 35 61 38 
28 30 47 5 39 53 
21 72 2 
48 11 69 60 0 
40 27 33 25 9 
26 74 29 71 73 42 
54 76 75 6 17 49 
32 56 23 63 
